
Gurobi 9.0.1 (linux64) logging started Thu Apr 30 17:39:23 2020

Gurobi Optimizer version 9.0.1 build v9.0.1rc0 (linux64)
Optimize a model with 12677 rows, 12060 columns and 201690 nonzeros
Model fingerprint: 0x2b735a35
Variable types: 0 continuous, 12060 integer (12032 binary)
Coefficient statistics:
  Matrix range     [1e+00, 1e+01]
  Objective range  [2e+00, 1e+02]
  Bounds range     [1e+00, 1e+00]
  RHS range        [1e+00, 1e+00]

User MIP start produced solution with objective 1048 (0.26s)
Loaded user MIP start with objective 1048

Presolve removed 3752 rows and 3270 columns
Presolve time: 2.81s
Presolved: 8925 rows, 8790 columns, 167925 nonzeros
Variable types: 0 continuous, 8790 integer (8764 binary)

Root simplex log...

Iteration    Objective       Primal Inf.    Dual Inf.      Time
    2894    5.7200012e+02   9.782585e+03   0.000000e+00      5s
    6134    5.9842262e+02   2.120997e+03   0.000000e+00     10s
    8459    6.0101337e+02   6.181400e+01   0.000000e+00     15s
    9480    6.0113336e+02   0.000000e+00   0.000000e+00     18s

Root relaxation: objective 6.011334e+02, 9480 iterations, 14.38 seconds

    Nodes    |    Current Node    |     Objective Bounds      |     Work
 Expl Unexpl |  Obj  Depth IntInf | Incumbent    BestBd   Gap | It/Node Time

     0     0  601.13336    0 2021 1048.00000  601.13336  42.6%     -   20s
     0     0  644.90721    0 2107 1048.00000  644.90721  38.5%     -   82s
     0     0  645.72784    0 2109 1048.00000  645.72784  38.4%     -   96s
     0     0  645.74077    0 2072 1048.00000  645.74077  38.4%     -   98s
     0     0  645.74106    0 2065 1048.00000  645.74106  38.4%     -   99s
     0     0  658.43776    0 2099 1048.00000  658.43776  37.2%     -  153s
     0     0  658.53592    0 2090 1048.00000  658.53592  37.2%     -  163s
     0     0  658.54002    0 2071 1048.00000  658.54002  37.2%     -  166s
     0     0  665.91166    0 2061 1048.00000  665.91166  36.5%     -  259s
     0     0  666.86534    0 2053 1048.00000  666.86534  36.4%     -  304s
     0     0  666.91289    0 2060 1048.00000  666.91289  36.4%     -  312s
     0     0  666.91656    0 2088 1048.00000  666.91656  36.4%     -  315s
     0     0  672.33350    0 2080 1048.00000  672.33350  35.8%     -  416s
     0     0  673.91485    0 2045 1048.00000  673.91485  35.7%     -  471s
     0     0  674.12952    0 2025 1048.00000  674.12952  35.7%     -  486s
     0     0  674.14945    0 2022 1048.00000  674.14945  35.7%     -  492s
     0     0  677.71939    0 2037 1048.00000  677.71939  35.3%     -  574s
     0     0  677.92666    0 2098 1048.00000  677.92666  35.3%     -  591s
     0     0  677.96428    0 2112 1048.00000  677.96428  35.3%     -  599s
     0     0  677.97189    0 2066 1048.00000  677.97189  35.3%     -  602s
     0     0  679.38437    0 2117 1048.00000  679.38437  35.2%     -  657s
     0     0  679.50847    0 2119 1048.00000  679.50847  35.2%     -  678s
     0     0  679.52333    0 2138 1048.00000  679.52333  35.2%     -  683s
     0     0  680.59302    0 2105 1048.00000  680.59302  35.1%     -  739s
     0     0  680.74295    0 2125 1048.00000  680.74295  35.0%     -  758s
     0     0  680.75844    0 2111 1048.00000  680.75844  35.0%     -  763s
     0     0  681.21906    0 2144 1048.00000  681.21906  35.0%     -  798s
     0     0  681.33726    0 2106 1048.00000  681.33726  35.0%     -  815s
     0     0  681.36476    0 2148 1048.00000  681.36476  35.0%     -  821s
     0     0  682.00776    0 2134 1048.00000  682.00776  34.9%     -  861s
     0     0  682.08602    0 2107 1048.00000  682.08602  34.9%     -  877s
     0     0  682.11417    0 2138 1048.00000  682.11417  34.9%     -  886s
     0     0  683.17888    0 2119 1048.00000  683.17888  34.8%     -  934s
     0     0  683.30617    0 2119 1048.00000  683.30617  34.8%     -  953s
     0     0  683.32173    0 2111 1048.00000  683.32173  34.8%     -  961s
     0     0  683.53730    0 2131 1048.00000  683.53730  34.8%     -  982s
     0     0  683.53730    0 2131 1048.00000  683.53730  34.8%     -  990s
H    0     0                    1040.0000000  683.54967  34.3%     - 1063s
     0     2  683.54967    0 2131 1040.00000  683.54967  34.3%     - 1065s
     1     3  685.43551    1 2071 1040.00000  683.54967  34.3% 13636 1122s
     2     4  698.49866    1 1945 1040.00000  685.43584  34.1% 34231 1333s
     3     5  685.60179    2 2052 1040.00000  685.44221  34.1% 24051 1375s
     4     6  714.56834    2 1863 1040.00000  685.60181  34.1% 31976 1593s
     5     7  685.69700    3 2040 1040.00000  685.60238  34.1% 26184 1603s
     6     8  710.90188    3 1879 1040.00000  685.69700  34.1% 49946 2257s
     7     9  686.23946    4 2064 1040.00000  685.69700  34.1% 43992 2290s
     8    10  702.69573    4 1871 1040.00000  686.23946  34.0% 45140 2457s
     9    11  687.18388    5 2117 1040.00000  686.23946  34.0% 41907 2513s
    10    12  698.75891    5 1882 1040.00000  687.18388  33.9% 40760 2618s
    11    13  688.17626    6 2102 1040.00000  687.18388  33.9% 38383 2672s
    12    14  722.01524    6 1857 1040.00000  688.17626  33.8% 38478 2815s
    13    15  688.37148    7 2089 1040.00000  688.17626  33.8% 35865 2831s
    14    16  699.18905    7 1919 1040.00000  688.37156  33.8% 35931 2973s
    15    17  688.38291    8 2073 1040.00000  688.37509  33.8% 33599 2977s
    16    18  688.72362    9 2065 1040.00000  688.37509  33.8% 31720 2992s
    17    19  702.19084   10 1875 1040.00000  688.37509  33.8% 31917 3144s
    18    20  689.00378   10 2078 1040.00000  688.37509  33.8% 30423 3159s
    19    21  689.21181   11 2092 1040.00000  688.37509  33.8% 29054 3172s
    20    22  703.63077   11 1951 1040.00000  688.37509  33.8% 29198 3270s
    21    23  689.40029   12 2091 1040.00000  688.37509  33.8% 27972 3283s
    22    24  727.97552   12 1838 1040.00000  688.37509  33.8% 30178 3564s
    23    25  689.95954   13 2078 1040.00000  688.37509  33.8% 29211 3589s

Cutting planes:
  Gomory: 2
  MIR: 49
  StrongCG: 5
  Zero half: 57
  RLT: 1272

Explored 24 nodes (920861 simplex iterations) in 3600.01 seconds
Thread count was 1 (of 40 available processors)

Solution count 2: 1040 1048 

Time limit reached
Best objective 1.040000000000e+03, best bound 6.890000000000e+02, gap 33.7500%

User-callback calls 36045, time in user-callback 0.06 sec
